p cnf 133 192               
-7 -6 -21 0
21 -29 0
-6 22 0
-7 22 0
6 7 -22 0
-22 -8 -23 0
23 -29 0
-8 24 0
-22 24 0
8 22 -24 0
-24 -9 -25 0
25 -29 0
-9 26 0
-24 26 0
9 24 -26 0
-26 -10 -27 0
27 -29 0
10 26 -28 0
28 -29 0
29 -71 0
-17 -16 -30 0
30 -38 0
-16 31 0
-17 31 0
16 17 -31 0
-31 -18 -32 0
32 -38 0
-18 33 0
-31 33 0
18 31 -33 0
-33 -19 -34 0
34 -38 0
-19 35 0
-33 35 0
19 33 -35 0
-35 -20 -36 0
36 -38 0
20 35 -37 0
37 -38 0
38 -71 0
6 39 0
-1 39 0
7 40 0
-2 40 0
8 41 0
-3 41 0
9 42 0
-4 42 0
10 43 0
-5 43 0
-39 -40 -41 -42 -43 44 0
-44 -56 0
1 -45 0
11 -45 0
-6 45 -50 0
50 -55 0
2 -46 0
12 -46 0
-7 46 -51 0
51 -55 0
3 -47 0
13 -47 0
-8 47 -52 0
52 -55 0
4 -48 0
14 -48 0
-9 48 -53 0
53 -55 0
5 -49 0
15 -49 0
-10 49 -54 0
54 -55 0
55 -56 0
16 57 0
-11 57 0
17 58 0
-12 58 0
18 59 0
-13 59 0
19 60 0
-14 60 0
20 61 0
-15 61 0
-57 -58 -59 -60 -61 62 0
-62 -69 0
-16 45 -63 0
63 -68 0
-17 46 -64 0
64 -68 0
-18 47 -65 0
65 -68 0
-19 48 -66 0
66 -68 0
-20 49 -67 0
67 -68 0
68 -69 0
56 69 -70 0
70 -71 0
-1 2 -72 0
72 -86 0
-1 -2 73 0
1 2 73 0
-2 2 73 0
-6 7 -74 0
-73 74 -75 0
75 -86 0
-6 -7 76 0
6 7 76 0
-7 7 76 0
-73 -76 77 0
-11 12 -78 0
-77 78 -79 0
79 -86 0
-11 -12 80 0
11 12 80 0
-12 12 80 0
-77 -80 81 0
-16 17 -82 0
-81 82 -83 0
83 -86 0
86 -132 0
-2 3 -87 0
87 -101 0
-2 -3 88 0
2 3 88 0
-3 3 88 0
-7 8 -89 0
-88 89 -90 0
90 -101 0
-7 -8 91 0
7 8 91 0
-8 8 91 0
-88 -91 92 0
-12 13 -93 0
-92 93 -94 0
94 -101 0
-12 -13 95 0
12 13 95 0
-13 13 95 0
-92 -95 96 0
-17 18 -97 0
-96 97 -98 0
98 -101 0
101 -132 0
-3 4 -102 0
102 -116 0
-3 -4 103 0
3 4 103 0
-4 4 103 0
-8 9 -104 0
-103 104 -105 0
105 -116 0
-8 -9 106 0
8 9 106 0
-9 9 106 0
-103 -106 107 0
-13 14 -108 0
-107 108 -109 0
109 -116 0
-13 -14 110 0
13 14 110 0
-14 14 110 0
-107 -110 111 0
-18 19 -112 0
-111 112 -113 0
113 -116 0
116 -132 0
-4 5 -117 0
117 -131 0
-4 -5 118 0
4 5 118 0
-5 5 118 0
-9 10 -119 0
-118 119 -120 0
120 -131 0
-9 -10 121 0
9 10 121 0
-10 10 121 0
-118 -121 122 0
-14 15 -123 0
-122 123 -124 0
124 -131 0
-14 -15 125 0
14 15 125 0
-15 15 125 0
-122 -125 126 0
-19 20 -127 0
-126 127 -128 0
128 -131 0
131 -132 0
71 0
132 0
